c description: Random 3-CNF over 14 variables and 28 clauses
p cnf 14 28
6 8 12 0
1 4 11 0
-2 8 9 0
-4 -7 -14 0
-2 4 -13 0
2 3 -12 0
-1 6 -9 0
11 12 14 0
-3 4 9 0
2 4 7 0
5 11 -13 0
1 -12 -13 0
-2 -6 8 0
1 4 -10 0
-5 6 -7 0
1 8 13 0
-7 9 10 0
-1 -3 12 0
7 -8 -13 0
6 7 12 0
-4 -10 14 0
5 -9 -13 0
2 9 -11 0
5 -8 -11 0
-4 -9 10 0
2 -6 14 0
2 -7 -10 0
10 11 13 0